50
120
94
92
89
89
87
82
82
81
80
80
78
71
70
67
66
63
58
52
50
48
46
36
34
33
31
30
27
26
21
21
20
19
18
18
17
12
11
11
11
11
10
10
7
7
7
6
5
5
4
3
